c Result of efficient AIG-to-CNF conversion using package CNF
p cnf 504 2153
-2 3 469 473 480 0
2 -480 0
2 -3 0
2 -473 0
2 -469 0
-3 4 -450 -451 465 0
-3 4 450 451 465 0
3 -465 0
3 450 -451 0
3 -4 0
3 -450 451 0
-4 -5 -191 -426 -435 0
-4 5 191 -426 -435 0
-4 -5 -191 426 435 0
-4 5 191 426 435 0
4 426 -435 0
4 -426 435 0
4 5 -191 0
4 -5 191 0
-5 6 182 0
-5 -6 -182 0
5 -6 182 0
5 6 -182 0
6 -7 158 0
6 158 -170 0
6 -7 -170 0
-6 -158 170 0
-6 7 -158 0
-6 7 170 0
7 -8 -141 0
7 -8 75 0
7 75 -141 0
-7 -75 141 0
-7 8 141 0
-7 8 -75 0
8 -9 40 0
8 9 -40 0
-8 9 40 0
-8 -9 -40 0
9 -10 27 0
9 10 -27 0
-9 10 27 0
-9 -10 -27 0
-10 11 24 0
-10 -11 -24 0
10 -11 24 0
10 11 -24 0
-11 12 17 0
11 -12 0
11 -17 0
12 -500 -502 -503 -13 0
-12 13 0
-12 500 0
-12 503 0
-12 502 0
13 -14 0
-13 14 0
-14 15 16 0
14 -15 0
14 -16 0
-15 500 0
-15 502 0
-15 503 0
15 -500 -502 -503 0
16 -501 502 -503 0
16 -501 -502 503 0
-16 501 0
-16 -502 -503 0
-16 502 503 0
17 12 -18 -22 0
-17 22 0
-17 18 0
-17 -12 0
-18 21 13 0
-18 19 20 0
-18 20 13 0
-18 19 21 0
18 -20 -21 0
18 -19 -13 0
19 -501 -502 0
-19 501 0
-19 502 0
20 -500 -501 0
-20 500 0
-20 501 0
21 -502 -503 0
-21 502 0
-21 503 0
22 -23 0
-22 23 0
-23 503 0
-23 501 -502 0
23 -501 -503 0
23 502 -503 0
-24 13 -26 0
-24 503 25 0
-24 503 -26 0
-24 13 25 0
-24 -503 -13 -25 26 0
24 503 -25 26 0
24 -503 -13 25 0
24 -503 -13 -26 0
24 13 -25 26 0
-25 502 0
-25 503 22 0
-25 501 22 0
25 -502 -22 0
25 -501 -502 -503 0
26 -501 -502 -503 -22 0
-26 22 0
-26 501 0
-26 503 0
-26 502 0
-27 28 35 0
27 -28 0
27 -35 0
28 -503 -29 -30 0
-28 503 0
-28 30 0
-28 29 0
-29 500 -501 0
-29 500 502 0
-29 502 503 0
-29 -500 -502 -503 0
29 -500 502 -503 0
29 -500 -502 503 0
29 500 501 -502 0
-30 31 33 0
30 -31 0
30 -33 0
31 -32 -22 -29 0
-31 32 0
-31 22 0
-31 29 0
32 -500 -502 0
-32 500 0
-32 502 0
33 -13 31 -34 0
-33 13 0
-33 34 0
-33 -31 0
-34 22 29 0
-34 19 20 0
-34 20 29 0
-34 19 22 0
34 -20 -22 0
34 -19 -29 0
35 30 -36 -37 0
35 -30 36 -37 0
-35 37 0
-35 30 36 0
-35 -30 -36 0
36 -503 -29 0
-36 503 0
-36 29 0
-37 22 38 0
-37 -17 38 0
-37 501 38 0
37 -38 0
37 -501 -22 17 0
38 11 -39 0
-38 -11 0
-38 39 0
-39 502 0
-39 503 13 0
-39 500 13 0
39 -502 -13 0
39 -500 -502 -503 0
-40 41 54 0
40 -41 0
40 -54 0
41 -42 -52 0
-41 42 0
-41 52 0
-42 43 46 0
42 -43 0
42 -46 0
43 -503 -44 -45 0
-43 503 0
-43 44 0
-43 45 0
44 32 -20 0
44 -32 20 0
-44 -32 -20 0
-44 32 20 0
45 -500 501 -502 -13 0
-45 13 0
-45 500 0
-45 502 0
-45 -501 0
46 -47 -51 0
-46 47 0
-46 51 0
-47 48 0
47 -48 0
48 -501 -49 -50 0
-48 501 0
-48 50 0
-48 49 0
-49 -20 29 0
-49 503 29 0
49 -29 0
49 -503 20 0
-50 502 13 0
-50 -501 13 0
-50 500 0
-50 501 -502 -13 0
50 -500 -501 -13 0
50 -500 502 -13 0
50 -500 501 -502 13 0
-51 503 45 0
-51 44 45 0
-51 -503 -44 -45 0
51 503 -45 0
51 -503 -44 45 0
51 44 -45 0
52 53 -37 0
52 28 -53 37 0
52 -28 -37 0
-52 -28 37 0
-52 28 -53 -37 0
-52 53 37 0
-53 29 30 0
-53 503 30 0
53 -30 0
53 -503 -29 0
54 -55 -74 0
-54 55 0
-54 74 0
-55 56 61 0
55 -56 0
55 -61 0
56 -57 -58 0
-56 57 0
-56 58 0
-57 47 51 0
-57 -47 -51 0
57 -47 51 0
57 47 -51 0
-58 13 59 0
-58 -33 59 0
-58 501 59 0
58 -59 0
58 -501 -13 33 0
59 30 -60 0
59 -502 -29 30 0
-59 -30 0
-59 29 60 0
-59 502 60 0
60 -500 -22 0
-60 500 0
-60 22 0
61 -62 -73 0
-61 62 0
-61 73 0
-62 63 67 0
62 -63 0
62 -67 0
63 -64 -66 0
-63 64 0
-63 66 0
-64 65 0
64 -65 0
65 -500 -501 502 -503 0
-65 503 0
-65 500 0
-65 501 0
-65 -502 0
-66 501 50 0
-66 -501 -49 -47 0
-66 49 50 0
66 49 -50 0
66 501 -50 0
66 -501 -49 47 0
67 -68 -72 0
-67 68 0
-67 72 0
68 -69 -70 0
-68 69 0
-68 70 0
69 -500 -503 -44 0
-69 500 0
-69 503 0
-69 44 0
-70 -20 -64 0
-70 19 71 0
-70 19 -64 0
-70 -20 71 0
70 -19 20 0
70 64 -71 0
-71 500 0
-71 501 29 0
-71 -502 29 0
71 -500 -29 0
71 -500 -501 502 0
-72 64 66 0
-72 -64 -66 0
72 -64 66 0
72 64 -66 0
-73 57 58 0
-73 -57 -58 0
73 -57 58 0
73 57 -58 0
-74 -42 -52 0
-74 42 52 0
74 42 -52 0
74 -42 52 0
75 -76 107 0
75 76 -107 0
-75 76 107 0
-75 -76 -107 0
76 -77 94 0
76 77 -94 0
-76 77 94 0
-76 -77 -94 0
-77 78 91 0
-77 -78 -91 0
77 -78 91 0
77 78 -91 0
-78 79 84 0
78 -79 0
78 -84 0
79 -496 -498 -499 -80 0
-79 80 0
-79 496 0
-79 499 0
-79 498 0
80 -81 0
-80 81 0
-81 82 83 0
81 -82 0
81 -83 0
-82 496 0
-82 498 0
-82 499 0
82 -496 -498 -499 0
83 -497 498 -499 0
83 -497 -498 499 0
-83 497 0
-83 -498 -499 0
-83 498 499 0
84 79 -85 -89 0
-84 89 0
-84 85 0
-84 -79 0
-85 88 80 0
-85 86 87 0
-85 87 80 0
-85 86 88 0
85 -87 -88 0
85 -86 -80 0
86 -497 -498 0
-86 497 0
-86 498 0
87 -496 -497 0
-87 496 0
-87 497 0
88 -498 -499 0
-88 498 0
-88 499 0
89 -90 0
-89 90 0
-90 499 0
-90 497 -498 0
90 -497 -499 0
90 498 -499 0
-91 80 -93 0
-91 499 92 0
-91 499 -93 0
-91 80 92 0
-91 -499 -80 -92 93 0
91 499 -92 93 0
91 -499 -80 92 0
91 -499 -80 -93 0
91 80 -92 93 0
-92 498 0
-92 499 89 0
-92 497 89 0
92 -498 -89 0
92 -497 -498 -499 0
93 -497 -498 -499 -89 0
-93 89 0
-93 497 0
-93 499 0
-93 498 0
-94 95 102 0
94 -95 0
94 -102 0
95 -499 -96 -97 0
-95 499 0
-95 97 0
-95 96 0
-96 496 -497 0
-96 496 498 0
-96 498 499 0
-96 -496 -498 -499 0
96 -496 498 -499 0
96 -496 -498 499 0
96 496 497 -498 0
-97 98 100 0
97 -98 0
97 -100 0
98 -99 -89 -96 0
-98 99 0
-98 89 0
-98 96 0
99 -496 -498 0
-99 496 0
-99 498 0
100 -80 98 -101 0
-100 80 0
-100 101 0
-100 -98 0
-101 89 96 0
-101 86 87 0
-101 87 96 0
-101 86 89 0
101 -87 -89 0
101 -86 -96 0
102 -103 -104 0
-102 103 0
-102 104 0
-103 499 97 0
-103 -499 -96 -97 0
-103 96 97 0
103 96 -97 0
103 499 -97 0
103 -499 -96 97 0
-104 89 105 0
-104 -84 105 0
-104 497 105 0
104 -105 0
104 -497 -89 84 0
105 78 -106 0
-105 -78 0
-105 106 0
-106 498 0
-106 499 80 0
-106 496 80 0
106 -498 -80 0
106 -496 -498 -499 0
-107 108 120 0
107 -108 0
107 -120 0
108 -109 -110 0
-108 109 0
-108 110 0
-109 103 104 0
-109 -103 -104 0
109 -103 104 0
109 103 -104 0
-110 111 114 0
110 -111 0
110 -114 0
111 -499 -112 -113 0
-111 499 0
-111 112 0
-111 113 0
112 99 -87 0
112 -99 87 0
-112 -99 -87 0
-112 99 87 0
113 -496 497 -498 -80 0
-113 80 0
-113 496 0
-113 498 0
-113 -497 0
114 -115 -119 0
-114 115 0
-114 119 0
-115 116 0
115 -116 0
116 -497 -117 -118 0
-116 497 0
-116 118 0
-116 117 0
-117 -87 96 0
-117 499 96 0
117 -96 0
117 -499 87 0
-118 498 80 0
-118 -497 80 0
-118 496 0
-118 497 -498 -80 0
118 -496 -497 -80 0
118 -496 498 -80 0
118 -496 497 -498 80 0
-119 499 113 0
-119 112 113 0
-119 -499 -112 -113 0
119 499 -113 0
119 -499 -112 113 0
119 112 -113 0
120 -121 -122 0
-120 121 0
-120 122 0
121 -109 110 0
121 109 -110 0
-121 109 110 0
-121 -109 -110 0
-122 123 128 0
122 -123 0
122 -128 0
123 -124 -125 0
-123 124 0
-123 125 0
-124 115 119 0
-124 -115 -119 0
124 -115 119 0
124 115 -119 0
-125 80 126 0
-125 -100 126 0
-125 497 126 0
125 -126 0
125 -497 -80 100 0
126 97 -127 0
126 -498 -96 97 0
-126 -97 0
-126 96 127 0
-126 498 127 0
127 -496 -89 0
-127 496 0
-127 89 0
128 -129 -140 0
-128 129 0
-128 140 0
-129 130 134 0
129 -130 0
129 -134 0
130 -131 -133 0
-130 131 0
-130 133 0
-131 132 0
131 -132 0
132 99 -87 -96 0
-132 -99 0
-132 87 0
-132 96 0
-133 497 118 0
-133 -497 -117 -115 0
-133 117 118 0
133 117 -118 0
133 497 -118 0
133 -497 -117 115 0
134 -135 -139 0
-134 135 0
-134 139 0
135 -136 -137 0
-135 136 0
-135 137 0
136 -496 -499 -112 0
-136 496 0
-136 499 0
-136 112 0
-137 -87 -131 0
-137 86 138 0
-137 86 -131 0
-137 -87 138 0
137 -86 87 0
137 131 -138 0
-138 496 0
-138 497 96 0
-138 -498 96 0
138 -496 -96 0
138 -496 -497 498 0
-139 131 133 0
-139 -131 -133 0
139 -131 133 0
139 131 -133 0
-140 124 125 0
-140 -124 -125 0
140 -124 125 0
140 124 -125 0
141 143 -144 0
141 -142 143 0
141 -142 -144 0
-141 142 -143 0
-141 -143 144 0
-141 142 144 0
-142 55 74 0
-142 -55 -74 0
142 -55 74 0
142 55 -74 0
143 -121 122 0
143 121 -122 0
-143 121 122 0
-143 -121 -122 0
144 -145 -146 0
144 -146 157 0
144 -145 157 0
-144 146 -157 0
-144 145 146 0
-144 145 -157 0
-145 62 73 0
-145 -62 -73 0
145 -62 73 0
145 62 -73 0
146 -147 -148 0
146 -148 156 0
146 -147 156 0
-146 148 -156 0
-146 147 148 0
-146 147 -156 0
-147 68 72 0
-147 -68 -72 0
147 -68 72 0
147 68 -72 0
148 -149 -150 0
148 -150 155 0
148 -149 155 0
-148 150 -155 0
-148 149 150 0
-148 149 -155 0
149 -69 70 0
149 69 -70 0
-149 69 70 0
-149 -69 -70 0
150 -151 -152 0
150 -152 154 0
150 -151 154 0
-150 152 -154 0
-150 151 152 0
-150 151 -154 0
151 500 -501 0
151 -500 503 -44 0
151 -500 -503 44 0
-151 500 501 0
-151 -500 503 44 0
-151 -500 -503 -44 0
152 -32 -153 0
152 -32 99 0
152 99 -153 0
-152 -99 153 0
-152 32 153 0
-152 32 -99 0
153 496 -500 0
153 497 -500 -501 0
-153 500 0
-153 -496 501 0
-153 -496 -497 0
154 496 -497 0
154 -496 499 -112 0
154 -496 -499 112 0
-154 496 497 0
-154 -496 499 112 0
-154 -496 -499 -112 0
155 -136 137 0
155 136 -137 0
-155 136 137 0
-155 -136 -137 0
-156 135 139 0
-156 -135 -139 0
156 -135 139 0
156 135 -139 0
-157 129 140 0
-157 -129 -140 0
157 -129 140 0
157 129 -140 0
-158 159 162 0
-158 -159 -162 0
158 -159 162 0
158 159 -162 0
-159 160 161 0
159 -160 0
159 -161 0
160 -77 -94 0
-160 77 0
-160 94 0
161 -76 -107 0
-161 76 0
-161 107 0
-162 163 166 0
-162 -163 -166 0
162 -163 166 0
162 163 -166 0
-163 164 165 0
163 -164 0
163 -165 0
164 -499 -80 -92 93 0
-164 80 0
-164 -93 0
-164 499 0
-164 92 0
165 -78 -91 0
-165 78 0
-165 91 0
-166 93 167 0
-166 93 -168 0
166 -93 0
166 -167 168 0
-167 499 0
-167 498 89 0
167 -498 -499 0
167 -499 -89 0
-168 169 0
168 -169 0
169 -498 -499 -89 0
-169 498 0
-169 499 0
-169 89 0
-170 171 174 0
-170 -171 -174 0
170 -171 174 0
170 171 -174 0
-171 172 173 0
171 -172 0
171 -173 0
172 -10 -27 0
-172 10 0
-172 27 0
173 -9 -40 0
-173 9 0
-173 40 0
-174 175 178 0
-174 -175 -178 0
174 -175 178 0
174 175 -178 0
-175 176 177 0
175 -176 0
175 -177 0
176 -503 -13 -25 26 0
-176 13 0
-176 -26 0
-176 503 0
-176 25 0
177 -11 -24 0
-177 11 0
-177 24 0
-178 26 179 0
-178 26 -180 0
178 -26 0
178 -179 180 0
-179 503 0
-179 502 22 0
179 -502 -503 0
179 -503 -22 0
-180 181 0
180 -181 0
181 -502 -503 -22 0
-181 502 0
-181 503 0
-181 22 0
-182 183 187 0
-182 -183 -187 0
182 -183 187 0
182 183 -187 0
-183 184 186 0
-183 -184 -186 0
183 -184 186 0
183 184 -186 0
-184 159 185 0
-184 185 162 0
184 -185 0
184 -159 -162 0
185 -163 -166 0
-185 163 0
-185 166 0
-186 498 168 0
-186 -498 -499 -168 0
-186 499 168 0
186 498 -168 0
186 499 -168 0
186 -498 -499 168 0
-187 188 190 0
-187 -188 -190 0
187 -188 190 0
187 188 -190 0
-188 171 189 0
-188 189 174 0
188 -189 0
188 -171 -174 0
189 -175 -178 0
-189 175 0
-189 178 0
-190 502 180 0
-190 -502 -503 -180 0
-190 503 180 0
190 502 -180 0
190 503 -180 0
190 -502 -503 180 0
191 -192 412 0
191 192 -412 0
-191 192 412 0
-191 -192 -412 0
192 193 -324 0
-192 -193 0
-192 324 0
193 -194 308 0
-193 194 0
-193 -308 0
-194 195 295 0
194 -195 0
194 -295 0
195 196 278 -279 0
-195 -196 0
-195 279 0
-195 -278 0
196 -197 275 0
196 -197 277 0
-196 197 0
-196 -275 -277 0
197 198 -270 0
197 -198 -267 270 0
197 267 -270 0
-197 267 270 0
-197 198 270 0
-197 -198 -267 -270 0
198 199 -260 261 0
198 199 260 -261 0
198 -199 260 261 0
198 -199 -260 -261 0
-198 199 -260 -261 0
-198 199 260 261 0
-198 -199 260 -261 0
-198 -199 -260 261 0
-199 200 251 0
-199 22 200 0
-199 22 251 0
199 -22 -200 0
199 -200 -251 0
199 -22 -251 0
200 -89 -201 -245 0
200 -89 201 245 0
200 89 201 -245 0
200 89 -201 245 0
-200 -89 -201 245 0
-200 -89 201 -245 0
-200 89 201 245 0
-200 89 -201 -245 0
-201 80 202 0
-201 202 235 0
-201 80 235 0
201 -202 -235 0
201 -80 -202 0
201 -80 -235 0
-202 203 227 0
-202 -203 -227 0
202 -203 227 0
202 203 -227 0
-203 204 209 0
-203 209 214 0
-203 204 214 0
203 -204 -214 0
203 -209 -214 0
203 -204 -209 0
-204 32 206 0
-204 205 206 0
204 -206 0
204 -32 -205 0
205 -497 -499 0
-205 497 0
-205 499 0
206 205 -207 -208 0
206 32 -207 -208 0
-206 207 0
-206 208 0
-206 -32 -205 0
207 -19 -87 0
-207 19 0
-207 87 0
-208 500 502 0
-208 497 499 0
-208 499 502 0
-208 497 500 0
208 -499 -500 0
208 -497 -502 0
-209 210 213 0
-209 -210 -213 0
209 -210 213 0
209 210 -213 0
-210 499 211 0
-210 501 211 0
-210 -499 -501 -211 0
210 499 -211 0
210 -499 -501 211 0
210 501 -211 0
211 -212 -99 0
-211 212 0
-211 99 0
212 -501 -503 0
-212 501 0
-212 503 0
-213 498 503 0
-213 497 502 0
-213 502 503 0
-213 497 498 0
-213 -497 -498 -502 -503 0
213 -497 502 -503 0
213 -498 -502 503 0
213 497 -498 -502 0
213 -497 498 -503 0
-214 215 219 0
214 -215 0
214 -219 0
215 -216 -218 0
-215 216 0
-215 218 0
-216 87 208 0
-216 19 -217 0
-216 19 208 0
-216 87 -217 0
-216 -19 -87 217 -208 0
216 19 217 -208 0
216 -19 -87 -217 0
216 -19 -87 208 0
216 87 217 -208 0
217 -32 -205 0
-217 32 0
-217 205 0
-218 498 503 0
-218 496 501 0
-218 501 503 0
-218 496 498 0
-218 -496 -498 -501 -503 0
218 -496 501 -503 0
218 -498 -501 503 0
218 496 -498 -501 0
218 -496 498 -503 0
219 -220 -221 0
-219 220 0
-219 221 0
-220 216 218 0
-220 -216 -218 0
220 -216 218 0
220 216 -218 0
-221 222 224 0
221 -222 0
221 -224 0
222 -498 -500 -223 0
-222 498 0
-222 500 0
-222 223 0
223 -496 501 -502 0
223 -497 -501 502 0
223 496 -497 -501 0
223 -496 497 -502 0
-223 497 502 0
-223 496 501 0
-223 501 502 0
-223 496 497 0
-223 -496 -497 -501 -502 0
224 -225 -226 0
-224 225 0
-224 226 0
225 -20 -87 0
-225 20 0
-225 87 0
-226 498 223 0
-226 500 223 0
-226 -498 -500 -223 0
226 498 -223 0
226 -498 -500 223 0
226 500 -223 0
-227 228 231 0
-227 -228 -231 0
227 -228 231 0
227 228 -231 0
-228 229 230 0
228 -229 0
228 -230 0
229 -499 -501 -211 0
-229 499 0
-229 501 0
-229 211 0
230 -210 -213 0
-230 210 0
-230 213 0
-231 232 -234 0
-231 -232 -233 234 0
-231 232 233 0
231 -232 233 0
231 -232 -234 0
231 232 -233 234 0
232 -502 -503 -86 0
-232 502 0
-232 503 0
-232 86 0
-233 502 503 0
-233 498 499 0
-233 499 503 0
-233 498 502 0
233 -499 -502 0
233 -498 -503 0
234 -498 -499 -502 -503 0
-234 503 0
-234 498 0
-234 502 0
-234 499 0
-235 96 238 0
-235 96 236 0
-235 236 238 0
235 -236 -238 0
235 -96 -238 0
235 -96 -236 0
236 -237 214 0
236 237 -214 0
-236 237 214 0
-236 -237 -214 0
-237 204 209 0
-237 -204 -209 0
237 -204 209 0
237 204 -209 0
-238 112 239 0
-238 239 240 0
-238 112 240 0
238 -239 -240 0
238 -112 -239 0
238 -112 -240 0
-239 220 221 0
-239 -220 -221 0
239 -220 221 0
239 220 -221 0
-240 241 0
240 -241 0
241 -242 -243 0
241 -243 -244 0
-241 243 0
-241 242 244 0
242 496 -497 0
-242 -496 0
-242 497 0
243 -225 226 0
243 225 -226 0
-243 225 226 0
-243 -225 -226 0
244 -496 497 -500 -501 0
244 -496 -497 -500 501 0
-244 500 0
-244 -497 -501 0
-244 496 0
-244 497 501 0
-245 246 249 0
-245 -246 -249 0
245 -246 249 0
245 246 -249 0
-246 247 248 0
246 -247 0
246 -248 0
247 -228 -231 0
-247 228 0
-247 231 0
248 -203 -227 0
-248 203 0
-248 227 0
-249 499 250 0
-249 -499 -503 -250 0
-249 503 250 0
249 499 -250 0
249 503 -250 0
249 -499 -503 250 0
-250 233 234 0
-250 232 234 0
250 -234 0
250 -232 -233 0
-251 252 253 0
-251 13 252 0
-251 13 253 0
251 -13 -252 0
251 -252 -253 0
251 -13 -253 0
252 -80 -202 -235 0
252 -80 202 235 0
252 80 202 -235 0
252 80 -202 235 0
-252 -80 -202 235 0
-252 -80 202 -235 0
-252 80 202 235 0
-252 80 -202 -235 0
-253 29 255 0
-253 29 254 0
-253 254 255 0
253 -254 -255 0
253 -29 -255 0
253 -29 -254 0
254 96 236 -238 0
254 96 -236 238 0
254 -96 -236 -238 0
254 -96 236 238 0
-254 96 236 238 0
-254 96 -236 -238 0
-254 -96 -236 238 0
-254 -96 236 -238 0
-255 256 0
255 -256 0
256 -44 -257 0
256 -257 -258 0
-256 257 0
-256 44 258 0
257 -112 -239 -240 0
257 -112 239 240 0
257 112 239 -240 0
257 112 -239 240 0
-257 -112 -239 240 0
-257 -112 239 -240 0
-257 112 239 240 0
-257 112 -239 -240 0
258 500 -501 -259 0
-258 259 0
-258 501 0
-258 -500 0
259 -496 243 -244 0
259 -496 -243 244 0
259 496 -497 -243 -244 0
259 497 243 -244 0
259 497 -243 244 0
259 496 -497 243 244 0
-259 -496 243 244 0
-259 -496 -243 -244 0
-259 496 -497 243 -244 0
-259 497 243 244 0
-259 497 -243 -244 0
-259 496 -497 -243 244 0
-260 502 0
-260 503 0
260 -502 -503 0
261 -262 263 0
261 262 -263 0
-261 262 263 0
-261 -262 -263 0
-262 89 201 0
-262 201 245 0
-262 89 245 0
262 -201 -245 0
262 -89 -201 0
262 -89 -245 0
-263 88 264 0
-263 -88 -264 0
263 -88 264 0
263 88 -264 0
-264 265 266 0
264 -265 0
264 -266 0
265 -499 -503 -250 0
-265 499 0
-265 503 0
-265 250 0
266 -246 -249 0
-266 246 0
-266 249 0
-267 268 269 0
-267 -268 -269 0
267 -268 269 0
267 268 -269 0
268 496 -500 0
-268 -496 0
-268 500 0
-269 -497 -501 0
-269 497 501 0
269 497 -501 0
269 -497 501 0
270 -271 -274 0
-270 271 0
-270 274 0
-271 503 272 0
-271 -499 503 0
-271 -499 272 0
271 499 -503 0
271 -503 -272 0
271 499 -272 0
272 498 -502 0
272 -502 -273 0
272 498 -273 0
-272 502 273 0
-272 -498 502 0
-272 -498 273 0
273 497 -501 0
273 -501 -268 0
273 497 -268 0
-273 501 268 0
-273 -497 501 0
-273 -497 268 0
274 29 254 -255 0
274 29 -254 255 0
274 -29 -254 -255 0
274 -29 254 255 0
-274 29 254 255 0
-274 29 -254 -255 0
-274 -29 -254 255 0
-274 -29 254 -255 0
-275 272 276 0
-275 -272 -276 0
275 -272 276 0
275 272 -276 0
-276 -499 -503 0
-276 499 503 0
276 499 -503 0
276 -499 503 0
277 -13 252 253 0
277 -13 -252 -253 0
277 13 -252 253 0
277 13 252 -253 0
-277 -13 252 -253 0
-277 -13 -252 253 0
-277 13 -252 -253 0
-277 13 252 253 0
278 197 -275 -277 0
-278 277 0
-278 275 0
-278 -197 0
-279 280 285 0
279 -280 0
279 -285 0
280 -198 -277 -281 0
-280 198 0
-280 277 0
-280 281 0
281 -282 -283 0
-281 282 0
-281 283 0
-282 -496 -500 0
-282 496 500 0
282 496 -500 0
282 -496 500 0
-283 273 284 0
-283 -273 -284 0
283 -273 284 0
283 273 -284 0
-284 -498 -502 0
-284 498 502 0
284 498 -502 0
284 -498 502 0
285 -286 -294 0
-285 286 0
-285 294 0
-286 287 291 0
286 -287 0
286 -291 0
287 -267 -277 288 0
-287 267 0
-287 277 0
-287 -288 0
288 -271 -289 0
-288 271 0
-288 289 0
289 290 -259 0
289 -290 259 0
-289 -290 -259 0
-289 290 259 0
290 500 -501 0
-290 -500 0
-290 501 0
291 -275 -292 293 0
-291 275 0
-291 292 0
-291 -293 0
292 -44 257 258 0
292 -44 -257 -258 0
292 44 -257 258 0
292 44 257 -258 0
-292 -44 257 -258 0
-292 -44 -257 258 0
-292 44 -257 -258 0
-292 44 257 258 0
293 267 -288 0
293 277 -288 0
293 -267 -277 288 0
-293 277 288 0
-293 -267 -277 -288 0
-293 267 288 0
-294 198 283 0
-294 277 282 0
-294 198 277 0
-294 282 283 0
-294 -198 -277 -282 -283 0
294 198 -277 -283 0
294 -198 277 -282 0
294 -198 -282 283 0
294 -277 282 -283 0
295 -296 307 0
295 -279 195 -296 0
-295 296 0
-295 279 -307 0
-295 -195 -307 0
-296 297 303 0
-296 -297 -303 0
296 -297 303 0
296 297 -303 0
-297 298 301 0
297 -298 0
297 -301 0
298 -267 -299 300 0
-298 267 0
-298 299 0
-298 -300 0
299 -22 200 251 0
299 -22 -200 -251 0
299 22 -200 251 0
299 22 200 -251 0
-299 -22 200 -251 0
-299 -22 -200 251 0
-299 22 -200 -251 0
-299 22 200 251 0
300 -271 -292 0
-300 271 0
-300 292 0
301 -274 -275 302 0
-301 274 0
-301 -302 0
-301 275 0
302 267 -300 0
302 299 -300 0
302 -267 -299 300 0
-302 299 300 0
-302 -267 -299 -300 0
-302 267 300 0
-303 282 283 0
-303 299 304 0
-303 283 304 0
-303 282 299 0
-303 -282 -283 -299 -304 0
303 -282 299 -304 0
303 282 -283 -299 0
303 -282 283 -304 0
303 -283 -299 304 0
304 -305 306 0
304 305 -306 0
-304 305 306 0
-304 -305 -306 0
-305 199 260 0
-305 260 261 0
-305 199 261 0
305 -260 -261 0
305 -199 -260 0
305 -199 -261 0
-306 88 262 0
-306 262 264 0
-306 88 264 0
306 -262 -264 0
306 -88 -262 0
306 -88 -264 0
-307 197 275 279 0
-307 197 277 279 0
-307 -197 -275 -277 279 0
307 -197 275 0
307 -197 277 0
307 -279 0
307 197 -275 -277 0
308 309 -317 -323 0
308 -309 -314 317 0
308 -309 323 0
308 309 314 -323 0
-308 -309 314 -323 0
-308 309 -314 317 0
-308 309 323 0
-308 -309 -317 -323 0
-309 310 312 0
-309 -310 -312 0
309 -310 312 0
309 310 -312 0
-310 311 278 0
310 -311 0
310 -278 0
311 -198 -267 270 0
-311 198 0
-311 -270 0
-311 267 0
-312 198 282 0
-312 283 313 0
-312 282 283 0
-312 198 313 0
-312 -198 -282 -283 -313 0
312 -198 -283 313 0
312 -282 283 -313 0
312 198 -282 -313 0
312 -198 282 -283 0
313 -305 -306 0
-313 305 0
-313 306 0
-314 315 316 0
314 -315 0
314 -316 0
315 -281 -299 -304 0
-315 281 0
-315 299 0
-315 304 0
316 -297 -303 0
-316 297 0
-316 303 0
317 -314 318 322 0
-317 314 0
-317 -322 0
-317 -318 0
318 275 -319 0
318 299 -319 0
-318 319 0
-318 -275 -299 0
-319 -320 -321 0
-319 320 321 0
319 320 -321 0
319 -320 321 0
320 -271 -277 0
-320 271 0
-320 277 0
321 -267 -304 0
-321 267 0
-321 304 0
322 -275 -299 319 0
-322 -319 0
-322 299 0
-322 275 0
-323 275 314 319 0
-323 299 314 319 0
-323 -275 -299 314 -319 0
323 299 -319 0
323 275 -319 0
323 -314 0
323 -275 -299 319 0
-324 -194 -308 325 0
-324 194 308 325 0
324 -325 0
324 -194 308 0
324 194 -308 0
325 326 -346 0
-325 -326 0
-325 346 0
326 -327 345 0
-326 327 0
-326 -345 0
-327 328 342 0
327 -328 0
327 -342 0
328 301 329 -330 0
-328 -301 0
-328 330 0
-328 -329 0
329 275 -302 0
329 274 -302 0
-329 302 0
-329 -274 -275 0
-330 331 332 0
330 -331 0
330 -332 0
331 -274 -281 -299 0
-331 274 0
-331 281 0
-331 299 0
332 -333 -341 0
-332 333 0
-332 341 0
-333 334 339 0
333 -334 0
333 -339 0
334 -267 -274 335 0
-334 267 0
-334 274 0
-334 -335 0
335 -271 -336 0
-335 271 0
-335 336 0
336 337 -338 0
336 -337 338 0
-336 -337 -338 0
-336 337 338 0
-337 497 501 0
-337 496 500 0
-337 500 501 0
-337 496 497 0
-337 -496 -497 -500 -501 0
337 -496 500 -501 0
337 -497 -500 501 0
337 496 -497 -500 0
337 -496 497 -501 0
338 -496 -500 0
-338 496 0
-338 500 0
339 -275 -289 340 0
-339 275 0
-339 289 0
-339 -340 0
340 267 -335 0
340 274 -335 0
340 -267 -274 335 0
-340 274 335 0
-340 -267 -274 -335 0
-340 267 335 0
-341 274 282 0
-341 283 299 0
-341 282 283 0
-341 274 299 0
-341 -274 -282 -283 -299 0
341 -274 -283 299 0
341 -282 283 -299 0
341 274 -282 -299 0
341 -274 282 -283 0
342 -343 344 0
342 -330 328 -343 0
-342 343 0
-342 330 -344 0
-342 -328 -344 0
-343 286 294 0
-343 -286 -294 0
343 -286 294 0
343 286 -294 0
-344 274 302 330 0
-344 275 302 330 0
-344 -274 -275 -302 330 0
344 274 -302 0
344 -274 -275 302 0
344 -330 0
344 275 -302 0
345 279 296 -307 0
345 -279 195 -296 0
345 -296 307 0
345 -195 296 -307 0
-345 279 -296 -307 0
-345 -279 195 296 0
-345 296 307 0
-345 -195 -296 -307 0
-346 -327 -345 347 0
-346 327 345 347 0
346 -347 0
346 -327 345 0
346 327 -345 0
347 348 -362 0
-347 -348 0
-347 362 0
348 -349 361 0
-348 349 0
-348 -361 0
-349 350 358 0
349 -350 0
349 -358 0
350 291 351 -352 0
-350 -291 0
-350 352 0
-350 -351 0
351 275 -293 0
351 292 -293 0
-351 293 0
-351 -275 -292 0
-352 353 354 0
352 -353 0
352 -354 0
353 -277 -281 -292 0
-353 277 0
-353 281 0
-353 292 0
354 353 -355 356 0
-354 -353 0
-354 -356 0
-354 355 0
-355 282 292 0
-355 277 283 0
-355 282 283 0
-355 277 292 0
355 -283 -292 0
355 -277 -282 0
356 267 -271 -357 0
356 -271 292 -357 0
-356 357 0
-356 271 0
-356 -267 -292 0
-357 496 500 0
357 -496 0
357 -500 0
358 -359 360 0
358 -352 350 -359 0
-358 359 0
-358 352 -360 0
-358 -350 -360 0
-359 333 341 0
-359 -333 -341 0
359 -333 341 0
359 333 -341 0
-360 292 293 352 0
-360 275 293 352 0
-360 -275 -292 -293 352 0
360 275 -293 0
360 292 -293 0
360 -352 0
360 -275 -292 293 0
361 330 343 -344 0
361 -330 328 -343 0
361 -343 344 0
361 -328 343 -344 0
-361 330 -343 -344 0
-361 -330 328 343 0
-361 343 344 0
-361 -328 -343 -344 0
-362 -349 -361 363 0
-362 349 361 363 0
362 -363 0
362 -349 361 0
362 349 -361 0
363 -364 375 0
-363 364 0
-363 -375 0
-364 365 374 0
364 -365 0
364 -374 0
365 366 -371 0
365 -370 -371 0
-365 371 0
-365 -366 370 0
-366 367 368 0
366 -367 0
366 -368 0
367 -275 -283 -289 -336 0
-367 275 0
-367 336 0
-367 289 0
-367 283 0
368 -274 -282 367 -369 0
-368 369 0
-368 -367 0
-368 274 0
-368 282 0
-369 275 289 0
-369 283 336 0
-369 275 283 0
-369 289 336 0
369 -275 -336 0
369 -283 -289 0
370 -353 -356 0
370 353 -355 356 0
370 355 -356 0
-370 355 356 0
-370 353 -355 -356 0
-370 -353 356 0
-371 372 373 0
371 -372 0
371 -373 0
372 366 -370 0
372 -366 370 0
-372 -366 -370 0
-372 366 370 0
373 275 -340 0
373 289 -340 0
373 -275 -289 340 0
-373 289 340 0
-373 -275 -289 -340 0
-373 275 340 0
374 352 359 -360 0
374 -352 350 -359 0
374 -359 360 0
374 -350 359 -360 0
-374 352 -359 -360 0
-374 -352 350 359 0
-374 359 360 0
-374 -350 -359 -360 0
375 365 -374 -376 0
375 -365 374 -376 0
-375 376 0
-375 365 374 0
-375 -365 -374 0
-376 377 390 0
376 -377 0
376 -390 0
377 -378 -379 0
-377 378 0
-377 379 0
-378 -372 -373 0
-378 372 373 0
378 372 -373 0
378 -372 373 0
-379 380 383 0
-379 380 389 0
379 -380 0
379 -383 -389 0
380 -381 -382 0
-380 381 0
-380 382 0
381 -267 -275 -289 -357 0
-381 267 0
-381 357 0
-381 289 0
-381 275 0
-382 267 271 0
-382 292 357 0
-382 271 292 0
-382 267 357 0
-382 -267 -271 -292 -357 0
382 267 -271 -357 0
382 -267 -292 357 0
382 -267 271 -292 0
382 -271 292 -357 0
-383 384 385 0
383 -384 0
383 -385 0
384 -281 -292 -336 0
-384 281 0
-384 292 0
-384 336 0
385 384 -386 -388 0
-385 -384 0
-385 386 0
-385 388 0
386 -267 -336 -387 0
-386 387 0
-386 336 0
-386 267 0
387 -283 -357 0
-387 283 0
-387 357 0
-388 283 292 0
-388 282 336 0
-388 282 283 0
-388 292 336 0
388 -283 -336 0
388 -282 -292 0
389 -381 382 0
389 381 -382 0
-389 381 382 0
-389 -381 -382 0
390 -391 -392 0
-390 391 0
-390 392 0
-391 378 379 0
-391 -378 -379 0
391 -378 379 0
391 378 -379 0
-392 393 396 0
392 -393 0
392 -396 0
393 -394 -395 0
-393 394 0
-393 395 0
-394 -383 -389 0
-394 383 389 0
394 383 -389 0
394 -383 389 0
-395 282 -367 0
-395 274 369 0
-395 282 369 0
-395 274 -367 0
-395 -274 -282 367 -369 0
395 274 367 -369 0
395 -274 -282 369 0
395 -274 -282 -367 0
395 282 367 -369 0
396 -397 -398 0
-396 397 0
-396 398 0
-397 394 395 0
-397 -394 -395 0
397 -394 395 0
397 394 -395 0
-398 399 404 0
398 -399 0
398 -404 0
399 -400 -402 0
-399 400 0
-399 402 0
-400 289 401 0
-400 -267 -289 -401 0
-400 267 401 0
400 267 -401 0
400 289 -401 0
400 -267 -289 401 0
401 -275 -357 0
-401 275 0
-401 357 0
-402 403 -386 -388 0
-402 -336 -403 386 0
-402 386 388 0
-402 336 -386 -388 0
402 336 386 -388 0
402 -336 -403 -386 0
402 -386 388 0
402 403 386 -388 0
403 -281 -292 0
-403 281 0
-403 292 0
404 -405 -406 0
-404 405 0
-404 406 0
-405 400 402 0
-405 -400 -402 0
405 -400 402 0
405 400 -402 0
-406 407 409 0
406 -407 0
406 -409 0
407 -282 -289 386 -408 0
-407 289 0
-407 408 0
-407 282 0
-407 -386 0
-408 267 387 0
-408 336 387 0
408 -387 0
408 -267 -336 0
409 -410 -411 0
-409 410 0
-409 411 0
410 -496 497 500 -501 0
410 496 -497 -500 -501 0
-410 -497 500 0
-410 -496 -500 0
-410 501 0
-410 496 497 0
411 -282 -289 408 0
411 282 386 -408 0
411 -282 -289 -386 0
411 289 386 -408 0
-411 289 408 0
-411 282 -386 0
-411 282 408 0
-411 289 -386 0
-411 -282 -289 386 -408 0
-412 413 415 0
-412 -413 -415 0
412 -413 415 0
412 413 -415 0
-413 317 414 0
413 -317 0
413 -414 0
414 -309 323 0
414 -309 -314 317 0
-414 309 0
-414 314 -323 0
-414 -317 -323 0
-415 -416 -422 0
-415 416 422 0
415 416 -422 0
415 -416 422 0
416 -417 420 0
416 417 -420 0
-416 417 420 0
-416 -417 -420 0
-417 418 419 0
417 -418 0
417 -419 0
418 -198 -281 -313 0
-418 198 0
-418 281 0
-418 313 0
419 -310 -312 0
-419 310 0
-419 312 0
-420 421 322 0
420 -421 0
420 -322 0
421 320 -321 0
-421 -320 0
-421 321 0
422 -423 425 0
422 423 -425 0
-422 423 425 0
-422 -423 -425 0
423 198 -424 0
423 -198 -275 424 0
423 275 -424 0
-423 275 424 0
-423 198 424 0
-423 -198 -275 -424 0
424 -271 -299 0
-424 271 0
-424 299 0
-425 283 313 0
-425 267 304 0
-425 267 283 0
-425 313 304 0
425 -283 -304 0
425 -267 -313 0
426 -427 428 0
426 427 -428 0
-426 427 428 0
-426 -427 -428 0
427 -6 183 0
427 183 -187 0
427 -6 -187 0
-427 -183 187 0
-427 6 -183 0
-427 6 187 0
-428 429 434 0
428 -429 0
428 -434 0
429 -430 432 433 0
429 -431 432 433 0
-429 -433 0
-429 -432 0
-429 430 431 0
430 -498 -499 -168 0
-430 498 0
-430 499 0
-430 168 0
431 -184 -186 0
-431 184 0
-431 186 0
432 -502 -503 -180 0
-432 502 0
-432 503 0
-432 180 0
433 -188 -190 0
-433 188 0
-433 190 0
434 430 431 -433 0
434 430 431 -432 0
-434 -430 0
-434 -431 0
-434 432 433 0
435 436 -447 0
435 -436 447 0
-435 -436 -447 0
-435 436 447 0
436 -437 444 0
436 437 -444 0
-436 437 444 0
-436 -437 -444 0
437 438 -441 0
437 -438 441 0
-437 -438 -441 0
-437 438 441 0
438 439 -440 0
438 -439 440 0
-438 -439 -440 0
-438 439 440 0
439 -198 -275 424 0
-439 198 0
-439 -424 0
-439 275 0
440 423 -425 0
-440 -423 0
-440 425 0
441 283 -442 0
441 313 -442 0
441 -283 -313 442 0
-441 313 442 0
-441 -283 -313 -442 0
-441 283 442 0
442 275 -443 0
442 304 -443 0
442 -275 -304 443 0
-442 304 443 0
-442 -275 -304 -443 0
-442 275 443 0
443 -198 -271 0
-443 198 0
-443 271 0
-444 445 446 0
444 -445 0
444 -446 0
445 -417 -420 0
-445 417 0
-445 420 0
446 -416 422 0
-446 416 0
-446 -422 0
447 448 -449 0
-447 -448 0
-447 449 0
448 -413 415 0
-448 413 0
-448 -415 0
-449 192 412 0
449 -192 0
449 -412 0
-450 -429 434 0
-450 427 434 0
450 -434 0
450 -427 429 0
451 452 -462 0
451 -452 462 0
-451 -452 -462 0
-451 452 462 0
452 453 -456 0
452 -453 456 0
-452 -453 -456 0
-452 453 456 0
-453 454 455 0
453 -454 0
453 -455 0
454 -439 -440 0
-454 439 0
-454 440 0
455 -438 441 0
-455 438 0
-455 -441 0
456 -457 458 0
456 457 -458 0
-456 457 458 0
-456 -457 -458 0
457 -271 -304 0
-457 271 0
-457 304 0
-458 275 459 0
-458 313 459 0
-458 -275 -313 -459 0
458 313 -459 0
458 -275 -313 459 0
458 275 -459 0
-459 460 461 0
459 -460 0
459 -461 0
460 -275 -304 443 0
-460 275 0
-460 304 0
-460 -443 0
461 -283 -313 442 0
-461 283 0
-461 313 0
-461 -442 0
462 463 -464 0
-462 -463 0
-462 464 0
463 437 -444 0
-463 -437 0
-463 444 0
-464 436 447 0
464 -436 0
464 -447 0
-465 -466 -468 0
-465 466 468 0
465 466 -468 0
465 -466 468 0
-466 99 467 0
-466 -99 -467 0
466 -99 467 0
466 99 -467 0
-467 -32 -153 0
-467 32 153 0
467 32 -153 0
467 -32 153 0
468 410 -411 0
468 -410 411 0
-468 -410 -411 0
-468 410 411 0
-469 -470 -472 0
-469 470 472 0
469 470 -472 0
469 -470 472 0
-470 152 471 0
-470 -152 -471 0
470 -152 471 0
470 152 -471 0
-471 -151 -154 0
-471 151 154 0
471 151 -154 0
471 -151 154 0
472 -405 406 0
472 405 -406 0
-472 405 406 0
-472 -405 -406 0
-473 474 476 477 479 0
-473 -474 -476 -477 -479 0
-473 474 476 -477 -479 0
-473 -474 -476 477 479 0
473 474 -476 0
473 -474 476 0
473 -477 479 0
473 477 -479 0
-474 -149 -475 0
-474 149 475 0
474 149 -475 0
474 -149 475 0
475 150 -155 0
475 -150 155 0
-475 -150 -155 0
-475 150 155 0
476 -397 398 0
476 397 -398 0
-476 397 398 0
-476 -397 -398 0
-477 148 478 0
-477 -148 -478 0
477 -148 478 0
477 148 -478 0
-478 147 156 0
-478 -147 -156 0
478 -147 156 0
478 147 -156 0
479 -391 392 0
479 391 -392 0
-479 391 392 0
-479 -391 -392 0
-480 481 489 493 495 0
-480 481 489 -493 -495 0
480 -489 0
480 -493 495 0
480 -481 0
480 493 -495 0
-481 -482 -484 -486 -488 0
-481 482 484 486 488 0
-481 -482 -484 486 488 0
-481 482 484 -486 -488 0
481 -482 484 0
481 482 -484 0
481 486 -488 0
481 -486 488 0
-482 146 483 0
-482 -146 -483 0
482 -146 483 0
482 146 -483 0
-483 145 157 0
-483 -145 -157 0
483 -145 157 0
483 145 -157 0
-484 -365 376 485 0
-484 365 -364 -376 0
-484 -376 -485 0
-484 364 376 485 0
484 -365 -376 485 0
484 365 -364 376 0
484 376 -485 0
484 364 -376 485 0
485 -365 374 0
-485 365 0
-485 -374 0
486 143 -487 0
486 -143 487 0
-486 -143 -487 0
-486 143 487 0
487 142 -144 0
487 -142 144 0
-487 -142 -144 0
-487 142 144 0
-488 349 361 363 0
-488 349 -361 -363 0
-488 -349 -361 363 0
-488 -349 361 -363 0
488 349 361 -363 0
488 349 -361 363 0
488 -349 -361 -363 0
488 -349 361 363 0
-489 490 492 0
-489 -490 -492 0
489 -490 492 0
489 490 -492 0
-490 75 491 0
-490 -75 -491 0
490 -75 491 0
490 75 -491 0
-491 -8 -141 0
-491 8 141 0
491 8 -141 0
491 -8 141 0
-492 327 345 347 0
-492 327 -345 -347 0
-492 -327 -345 347 0
-492 -327 345 -347 0
492 327 345 -347 0
492 327 -345 347 0
492 -327 -345 -347 0
492 -327 345 347 0
-493 170 494 0
-493 -170 -494 0
493 -170 494 0
493 170 -494 0
-494 7 158 0
-494 -7 -158 0
494 -7 158 0
494 7 -158 0
-495 194 308 325 0
-495 194 -308 -325 0
-495 -194 -308 325 0
-495 -194 308 -325 0
495 194 308 -325 0
495 194 -308 325 0
495 -194 -308 -325 0
495 -194 308 325 0
-504 0
2 0

